
******************************************************************************
This program contains Ipopt, a library for large-scale nonlinear optimization.
 Ipopt is released as open source code under the Eclipse Public License (EPL).
         For more information visit http://projects.coin-or.org/Ipopt
******************************************************************************

This is Ipopt version 3.12.6, running with linear solver ma57.

Number of nonzeros in equality constraint Jacobian...:        0
Number of nonzeros in inequality constraint Jacobian.:       20
Number of nonzeros in Lagrangian Hessian.............:        7

Total number of variables............................:        5
                     variables with only lower bounds:        0
                variables with lower and upper bounds:        0
                     variables with only upper bounds:        0
Total number of equality constraints.................:        0
Total number of inequality constraints...............:        4
        inequality constraints with only lower bounds:        0
   inequality constraints with lower and upper bounds:        0
        inequality constraints with only upper bounds:        4

iter    objective    inf_pr   inf_du lg(mu)  ||d||  lg(rg) alpha_du alpha_pr  ls
   0  0.0000000e+00 1.20e+01 1.03e+00  -1.0 0.00e+00    -  0.00e+00 0.00e+00   0
   1 -2.3738048e+01 2.02e+05 3.01e+03  -1.0 9.50e+01  -2.0 7.00e-01 2.50e-01f  3
   2 -2.3729397e+01 2.02e+05 3.01e+03  -1.0 6.98e+01   2.9 1.65e-01 9.74e-04h  3
   3 -2.3725896e+01 2.02e+05 3.01e+03  -1.0 7.94e+01   2.5 1.00e+00 5.44e-04h  5
   4 -2.3728217e+01 2.02e+05 3.01e+03  -1.0 1.10e+03   2.0 4.48e-03 3.73e-05h  9
   5 -2.3618120e+01 2.02e+05 2.98e+03  -1.0 6.90e+01   2.4 1.36e-01 1.10e-02h  4
   6 -2.3593008e+01 2.02e+05 6.86e+03  -1.0 7.02e+01   2.8 1.00e+00 2.37e-03h  6
   7 -2.3589965e+01 2.02e+05 6.69e+03  -1.0 1.07e+02   2.4 4.91e-02 2.67e-04h  9
   8 -2.3572983e+01 2.02e+05 6.85e+03  -1.0 6.31e+01   2.8 1.28e-01 1.27e-03h  7
   9r-2.3572983e+01 2.02e+05 1.00e+03   4.4 0.00e+00   2.3 0.00e+00 2.65e-07R 18
iter    objective    inf_pr   inf_du lg(mu)  ||d||  lg(rg) alpha_du alpha_pr  ls
  10r-2.3841777e+01 7.08e+04 1.00e+03   4.4 6.32e+07    -  8.29e-06 6.37e-04f  1
Reallocating memory for MA57: lfact (246)
  11r-2.3828132e+01 6.95e+04 3.43e+02   2.3 4.00e+07    -  9.13e-01 9.98e-04f  1
  12 -2.3907145e+01 2.25e+05 1.49e+04  -1.0 3.00e+02   1.8 1.20e-03 1.95e-03h 10
  13 -7.6180100e+01 7.10e+04 2.00e+06  -1.0 9.22e+02   1.4 1.97e-12 1.32e-10H  1
  14 -7.6999754e+01 2.00e+05 2.83e+08  -1.0 8.91e+02   4.5 8.09e-03 1.66e-03h  9
  15 -7.7047841e+01 2.02e+05 2.59e+08  -1.0 6.49e+02   7.6 2.82e-02 2.44e-04h 13
  16 -7.7049374e+01 2.02e+05 2.59e+08  -1.0 2.36e+03   7.1 3.97e-02 5.93e-06h 17
  17 -7.7052289e+01 2.02e+05 2.59e+08  -1.0 6.03e+02   7.6 7.40e-01 1.53e-05h 17
  18r-7.7052289e+01 2.02e+05 9.99e+02   4.4 0.00e+00   7.1 0.00e+00 7.78e-08R 22
  19r-7.7038971e+01 7.69e+04 9.99e+02   4.4 2.37e+07    -  9.25e-05 9.44e-04f  1
iter    objective    inf_pr   inf_du lg(mu)  ||d||  lg(rg) alpha_du alpha_pr  ls
  20 -8.1892266e+01 1.79e+05 1.00e+00  -1.0 1.12e+16    -  1.99e-05 6.60e-15f 35
  21 -8.1867122e+01 1.79e+05 2.35e+05  -1.0 9.21e+02   6.6 5.97e-01 6.10e-05h 15
  22 -8.1841972e+01 1.79e+05 3.14e+05  -1.0 9.19e+02   6.1 6.04e-01 6.10e-05h 15
  23 -8.1816811e+01 1.79e+05 3.40e+05  -1.0 9.15e+02   5.7 1.00e+00 6.10e-05h 15
  24 -8.1791620e+01 1.79e+05 3.48e+05  -1.0 9.03e+02   5.2 1.00e+00 6.10e-05h 15
  25 -8.1785292e+01 1.79e+05 3.49e+05  -1.0 8.54e+02   4.7 1.00e+00 1.53e-05h 17
  26r-8.1785292e+01 1.79e+05 9.99e+02   4.3 0.00e+00   4.2 0.00e+00 4.77e-07R 22
  27r-8.1784182e+01 1.12e+05 9.99e+02   4.3 4.68e+08    -  1.35e-05 4.93e-04f  2
  28r-8.1784168e+01 1.12e+05 1.20e+02   4.3 1.12e+07    -  1.00e+00 1.00e-03f  1
  29r-8.1617470e+01 4.32e+04 2.30e+03   4.3 2.22e+05    -  1.00e+00 9.85e-01f  1
Reallocating memory for MA57: lfact (323)
iter    objective    inf_pr   inf_du lg(mu)  ||d||  lg(rg) alpha_du alpha_pr  ls
  30 -8.6499663e+01 5.73e+04 2.14e+06  -1.0 1.44e+02   3.8 1.00e+00 6.25e-02h  5
  31 -2.1863139e+03 5.94e+04 2.14e+06  -1.0 4.72e+07    -  1.00e+00 4.45e-05f  1
  32 -6.7314429e+02 5.77e+04 1.61e+06  -1.0 7.86e+03    -  1.00e+00 2.50e-01h  1
  33 -6.4966891e+02 5.75e+04 1.59e+06  -1.0 3.10e+03    -  1.35e-01 7.56e-03h  1
  34  1.0879646e+03 5.16e+04 1.44e+06  -1.0 1.67e+04    -  1.21e-03 1.04e-01h  1
  35  4.5916074e+04 2.37e+02 2.15e+05  -1.0 4.48e+04    -  3.57e-02 1.00e+00h  1
  36  4.6726870e+02 1.15e+04 9.15e+04  -1.0 6.81e+04    -  1.00e+00 6.68e-01f  1
  37  1.8956822e+01 1.05e+04 8.35e+04  -1.0 5.09e+03    -  1.00e+00 8.81e-02f  1
  38  1.4415416e+01 1.05e+04 8.30e+04  -1.0 7.24e+02    -  1.00e+00 6.28e-03f  1
  39  1.6615782e+01 2.69e+03 2.12e+04  -1.0 7.55e+01    -  1.00e+00 1.00e+00h  1
iter    objective    inf_pr   inf_du lg(mu)  ||d||  lg(rg) alpha_du alpha_pr  ls
  40  1.3572065e+01 1.47e+03 1.17e+04  -1.0 1.32e+01    -  1.95e-01 5.22e-01h  1
  41 -6.9492249e+00 3.60e+02 2.98e+03  -1.0 2.05e+01    -  1.00e+00 1.00e+00f  1
  42 -4.7102712e+01 1.45e+02 8.11e+02  -1.0 4.02e+01    -  1.00e+00 1.00e+00f  1
  43 -4.7684876e+01 1.29e+02 2.58e+02  -1.0 1.00e+01    -  1.00e+00 5.22e-01h  1
  44 -4.2322763e+01 1.11e+02 2.10e+02  -1.0 2.04e+01    -  1.00e+00 2.62e-01h  1
  45 -4.0787303e+01 1.04e+02 2.14e+02  -1.0 1.87e+01    -  4.99e-01 2.00e-02H  1
  46 -2.9415549e+01 6.75e+01 7.17e+02  -1.0 2.27e+01    -  1.00e+00 5.00e-01h  2
  47 -1.7869367e+01 4.52e+01 1.00e+03  -1.0 1.15e+01    -  2.93e-01 1.00e+00h  1
  48 -1.7822023e+01 3.18e+01 3.87e+04  -1.0 4.12e+00   3.3 3.73e-02 1.25e-01h  4
  49 -1.7745549e+01 3.17e+01 3.83e+04  -1.0 7.54e+00    -  8.93e-01 1.01e-02h  1
iter    objective    inf_pr   inf_du lg(mu)  ||d||  lg(rg) alpha_du alpha_pr  ls
  50  1.3975688e+01 0.00e+00 4.14e+01  -1.0 3.17e+01    -  1.00e+00 1.00e+00h  1
  51  1.3974165e+01 0.00e+00 3.70e+00  -1.0 5.80e-03   2.8 1.00e+00 1.00e+00f  1
  52  1.3969566e+01 0.00e+00 2.51e+00  -1.0 1.18e-02   2.3 1.00e+00 1.00e+00f  1
  53  1.3955632e+01 0.00e+00 1.36e+00  -1.0 1.92e-02   1.9 1.00e+00 1.00e+00f  1
  54  1.3913647e+01 0.00e+00 9.92e-01  -1.0 4.20e-02   1.4 1.00e+00 1.00e+00f  1
  55  1.3787024e+01 0.00e+00 9.97e-01  -1.7 1.27e-01   0.9 1.00e+00 1.00e+00f  1
  56  1.3407229e+01 0.00e+00 9.97e-01  -1.7 3.80e-01   0.4 1.00e+00 1.00e+00f  1
  57  1.2267807e+01 0.00e+00 9.97e-01  -1.7 1.14e+00  -0.1 1.00e+00 1.00e+00f  1
  58 -2.2741147e+01 5.36e+02 2.25e+00  -1.7 3.36e+04    -  2.05e-01 1.04e-03f  1
  59 -1.9298885e+02 1.19e+03 2.49e+00  -1.7 3.16e+03    -  4.70e-04 5.39e-02f  1
iter    objective    inf_pr   inf_du lg(mu)  ||d||  lg(rg) alpha_du alpha_pr  ls
  60 -2.3557868e+02 2.87e+03 4.13e+00  -1.7 3.73e+02    -  3.18e-01 1.56e-01f  1
  61 -2.4217698e+02 3.25e+03 3.74e+00  -1.7 4.73e+02    -  2.67e-02 1.75e-01h  1
  62 -4.4373919e+02 1.40e+04 3.24e+03  -1.7 7.96e+02    -  1.15e-03 1.00e+00f  1
  63 -4.4374764e+02 1.01e+04 1.44e+03  -1.7 2.40e+02   2.2 7.74e-01 3.20e-03h  1
  64 -4.4157609e+02 9.61e+03 1.78e+04  -1.7 2.53e+01   1.7 1.00e+00 5.00e-01h  2
  65 -4.4045757e+02 7.47e+03 9.69e+03  -1.7 1.36e+01   2.1 1.00e+00 2.19e-01h  1
  66 -4.3820385e+02 3.46e+03 8.28e+04  -1.7 7.19e+00   1.6 1.00e+00 1.00e+00h  1
  67 -4.4470718e+02 1.15e+03 1.12e+07  -1.7 1.93e+01   3.0 1.67e-02 1.00e+00h  1
  68 -4.4750356e+02 2.54e+05 1.31e+11  -1.7 2.82e+01   5.2 3.02e-04 5.00e-01f  2
  69 -5.9399174e+02 7.75e+04 1.98e+10  -1.7 2.41e+02   4.7 1.12e-02 1.00e+00h  1
iter    objective    inf_pr   inf_du lg(mu)  ||d||  lg(rg) alpha_du alpha_pr  ls
  70 -6.0159482e+02 1.72e+04 7.94e+09  -1.7 2.05e+02   4.3 1.00e+00 1.00e+00h  1
  71 -5.5113679e+02 8.09e+03 1.45e+09  -1.7 1.53e+02   4.7 1.00e+00 1.00e+00h  1
  72 -1.0016017e+03 3.26e+04 3.15e+10  -1.7 6.72e+02   4.2 1.85e-01 1.00e+00f  1
  73 -1.0007570e+03 3.01e+04 2.86e+10  -1.7 3.71e+02   4.6 1.00e+00 9.18e-02h  1
  74 -1.0008770e+03 3.01e+04 2.86e+10  -1.7 2.49e+03   4.2 7.70e-01 1.37e-04h  1
  75r-1.0008770e+03 3.01e+04 9.99e+02   3.6 0.00e+00   4.6 0.00e+00 4.22e-07R  5
  76r-1.0008503e+03 2.20e+04 5.89e+02   3.6 4.41e+06    -  4.12e-01 4.12e-04f  1
  77 -1.0007780e+03 2.20e+04 1.55e+03  -1.7 3.96e+02   4.1 1.00e+00 3.12e-04h  4
  78 -1.0007131e+03 2.20e+04 2.02e+03  -1.7 3.97e+02   3.6 4.33e-02 2.79e-04h  4
  79 -1.0006418e+03 2.20e+04 7.12e+04  -1.7 4.09e+02   3.1 6.94e-01 2.98e-04h  5
iter    objective    inf_pr   inf_du lg(mu)  ||d||  lg(rg) alpha_du alpha_pr  ls
  80 -1.0005518e+03 2.20e+04 7.05e+04  -1.7 4.17e+02   2.7 4.38e-02 3.69e-04h 12
  81 -1.0005068e+03 2.20e+04 1.81e+04  -1.7 4.14e+02   2.2 1.00e+00 1.85e-04h 13
  82 -1.0004631e+03 2.20e+04 1.95e+04  -1.7 4.15e+02   2.6 4.22e-02 1.80e-04h 12
  83 -1.0004519e+03 2.20e+04 1.57e+04  -1.7 4.04e+02   2.1 1.00e+00 4.75e-05h 15
  84 -1.0004091e+03 2.20e+04 1.69e+04  -1.7 4.14e+02   2.6 4.22e-02 1.77e-04h 12
  85r-1.0004091e+03 2.20e+04 1.00e+03   3.4 0.00e+00   2.1 0.00e+00 4.11e-07R 22
  86r-1.0000673e+03 1.03e+04 4.08e+02   3.4 2.73e+06    -  8.00e-01 6.26e-04f  1
  87 -1.0043847e+03 7.83e+04 1.76e+02  -1.7 5.33e+13    -  7.34e-05 1.89e-12f 28
  88 -1.0043556e+03 7.83e+04 1.94e+03  -1.7 1.98e+02   1.6 1.00e+00 2.49e-04h  7
  89 -1.0043270e+03 7.83e+04 1.77e+03  -1.7 1.98e+02   1.1 1.31e-01 2.44e-04h  7
iter    objective    inf_pr   inf_du lg(mu)  ||d||  lg(rg) alpha_du alpha_pr  ls
  90 -1.0042981e+03 7.83e+04 2.30e+02  -1.7 1.97e+02   0.7 1.00e+00 2.42e-04h  7
  91 -1.0042552e+03 7.83e+04 2.23e+02  -1.7 2.59e+02   0.2 9.49e-02 1.81e-04h  9
  92 -1.0041744e+03 7.83e+04 2.42e+02  -1.7 3.01e+02  -0.3 1.00e+00 2.77e-04h 11
  93 -1.0679394e+03 1.17e+05 1.86e+03  -1.7 3.27e+02  -0.8 5.70e-01 1.03e-01H  1
  94r-1.0679394e+03 1.17e+05 9.99e+02   4.1 0.00e+00   2.4 0.00e+00 3.93e-07R 14
  95r-1.0731748e+03 5.01e+04 9.93e+02   4.1 1.23e+07    -  6.98e-03 1.05e-03f  1
  96 -1.0732944e+03 9.61e+04 1.53e+03  -1.7 7.82e+02   1.9 2.79e-02 9.77e-04h 11
  97 -1.0779602e+03 2.35e+05 3.38e+04  -1.7 1.26e+03   1.4 1.19e-02 1.56e-02h  7
  98 -1.1548441e+03 2.07e+05 1.95e+04  -1.7 1.32e+03   0.9 2.78e-02 2.50e-01h  3
  99 -1.1820180e+03 1.91e+05 1.58e+04  -1.7 1.12e+03   0.5 5.25e-01 8.41e-02h  1
iter    objective    inf_pr   inf_du lg(mu)  ||d||  lg(rg) alpha_du alpha_pr  ls
 100 -1.1820054e+03 1.91e+05 1.58e+04  -1.7 3.25e+03   0.9 6.07e-01 2.38e-04h  1
 101 -1.1362388e+03 1.74e+05 6.64e+04  -1.7 1.10e+03   1.3 1.00e+00 1.65e-01h  2
 102 -1.4093649e+03 2.23e+05 4.54e+05  -1.7 1.05e+03   0.8 9.03e-02 5.00e-01f  2
 103 -1.3215539e+03 2.13e+05 7.97e+05  -1.7 1.53e+03   2.2 1.42e-01 8.94e-02h  3
 104 -1.2801893e+03 9.81e+04 5.41e+06  -1.7 1.18e+03   1.7 1.62e-03 1.00e+00h  1
 105 -1.0811180e+03 6.66e+04 3.95e+06  -1.7 9.98e+02   1.2 4.18e-03 3.24e-01h  2
 106 -1.0748259e+03 6.57e+04 3.90e+06  -1.7 9.64e+02   0.7 2.51e-01 1.20e-02h  6
 107 -1.0733394e+03 6.55e+04 3.89e+06  -1.7 1.12e+03   0.2 2.67e-01 2.70e-03h  8
 108 -1.0731726e+03 6.54e+04 3.89e+06  -1.7 1.33e+03  -0.2 1.00e+00 3.28e-04h 11
 109 -1.0190617e+03 5.17e+04 3.17e+06  -1.7 1.87e+03  -0.7 1.83e-01 1.73e-01h  2
iter    objective    inf_pr   inf_du lg(mu)  ||d||  lg(rg) alpha_du alpha_pr  ls
 110 -1.2595773e+03 2.89e+04 2.56e+06  -1.7 4.42e+03  -1.2 2.76e-01 2.89e-01f  1
 111 -1.2632044e+03 2.85e+04 2.55e+06  -1.7 3.60e+03  -0.8 6.55e-01 4.76e-03h  1
 112 -1.2630953e+03 2.85e+04 2.55e+06  -1.7 1.59e+03  -0.3 1.00e+00 2.25e-04h  1
 113 -2.0066815e+03 7.47e+04 4.12e+07  -1.7 4.46e+03  -0.8 4.36e-01 1.00e+00f  1
 114 -1.9443120e+03 6.00e+04 3.64e+07  -1.7 6.65e+02   0.5 1.00e+00 1.15e-01h  1
 115 -1.2728315e+03 4.48e+04 2.91e+07  -1.7 6.50e+03   0.0 9.81e-01 1.25e-01h  4
 116 -1.2638796e+03 4.43e+04 2.90e+07  -1.7 3.14e+03   0.5 1.00e+00 3.91e-03h  9
 117 -1.2635324e+03 4.42e+04 2.89e+07  -1.7 8.57e+02   0.9 1.00e+00 4.88e-04h 12
 118 -1.2633487e+03 4.42e+04 2.89e+07  -1.7 4.17e+03   0.4 1.00e+00 6.10e-05h 15
 119 -1.2633240e+03 4.42e+04 2.89e+07  -1.7 1.00e+03   0.8 1.00e+00 3.05e-05h 16
iter    objective    inf_pr   inf_du lg(mu)  ||d||  lg(rg) alpha_du alpha_pr  ls
 120r-1.2633240e+03 4.42e+04 1.00e+03   4.1 0.00e+00   0.4 0.00e+00 4.77e-07R 22
 121r-1.2634628e+03 3.02e+04 3.42e+01   4.1 1.22e+07    -  9.69e-01 9.06e-04f  1
 122 -1.2634612e+03 3.02e+04 7.40e+01  -1.7 2.29e+02  -0.1 1.00e+00 3.05e-05h 16
 123 -1.2634596e+03 3.02e+04 6.61e+01  -1.7 2.29e+02  -0.6 1.61e-01 3.05e-05h 16
 124 -1.2634583e+03 3.02e+04 8.14e+00  -1.7 2.30e+02  -1.1 1.00e+00 3.05e-05h 16
 125 -1.2634577e+03 3.02e+04 7.27e+00  -1.7 2.30e+02  -1.5 1.60e-01 3.05e-05h 16
 126 -1.2636680e+03 7.69e+04 5.16e+00  -1.7 2.30e+02  -2.0 1.00e+00 3.91e-03h  9
 127 -1.2637735e+03 8.42e+04 2.14e+00  -1.7 3.67e+02   0.2 2.56e-03 8.94e-04h 11
 128 -1.2637714e+03 8.42e+04 4.35e+00  -1.7 2.71e+02  -0.3 1.39e-01 3.75e-05h  4
 129 -1.2637706e+03 8.42e+04 1.58e+01  -1.7 2.77e+02  -0.7 1.00e+00 1.75e-05h 15
iter    objective    inf_pr   inf_du lg(mu)  ||d||  lg(rg) alpha_du alpha_pr  ls
 130 -1.2637810e+03 8.50e+04 1.34e+01  -1.7 2.72e+02  -1.2 1.50e-01 4.88e-04h 12
 131 -1.2637765e+03 8.50e+04 7.19e+00  -1.7 3.56e+02  -1.7 1.00e+00 3.05e-05h 16
 132 -1.1460244e+03 1.16e+37 5.47e+34  -1.7 4.01e+02  -2.2 9.47e-02 1.00e+00w  1
 133 -1.1659481e+03 1.16e+37 5.47e+34  -1.7 7.36e+19  -3.1 4.83e-18 6.57e-19w  1
 134 -1.1626898e+03 1.16e+37 5.47e+34  -1.7 1.30e+19  -2.3 4.88e-17 2.51e-19w  1
 135r-1.2637765e+03 8.50e+04 9.99e+02   4.0 0.00e+00  -2.3 0.00e+00 4.77e-07R 21
 136r-1.2690191e+03 5.46e+04 9.90e+02   4.0 1.01e+07    -  1.06e-02 1.03e-03f  1
 137r-1.2691929e+03 1.34e+05 6.07e+04   2.6 1.06e+02   2.0 5.34e-01 1.09e-02f  6
 138r-1.2691292e+03 1.33e+05 1.58e+04   2.6 7.94e+00   5.1 7.35e-01 1.40e-02h  5
 139r-1.2702912e+03 4.72e+04 1.48e+07   2.6 8.05e+00   4.7 5.36e-01 1.00e+00H  1
iter    objective    inf_pr   inf_du lg(mu)  ||d||  lg(rg) alpha_du alpha_pr  ls
 140r-1.2701601e+03 4.63e+04 4.37e+08   2.6 8.32e+01   6.9 4.19e-02 4.08e-03h  5
 141r-1.2407505e+03 4.63e+04 4.37e+08   2.6 2.03e+06    -  1.00e+00 7.41e-04f  1
 142r 2.9016275e+02 4.47e+04 3.77e+08   2.6 1.44e+04    -  1.00e+00 1.36e-01f  1
 143r 2.3553365e+03 4.25e+04 2.47e+08   2.6 1.28e+04    -  1.00e+00 3.46e-01f  1
 144r 2.3687901e+03 4.23e+04 2.44e+08   2.6 6.69e+03    -  3.44e-02 1.01e-02h  1
 145r 2.7953575e+03 4.14e+04 2.38e+08   2.6 1.67e+04    -  4.30e-04 2.55e-02h  1
 146r 1.4693464e+04 2.70e+04 1.51e+08   2.6 3.20e+04    -  3.81e-01 3.72e-01h  1
Warning: Cutting back alpha due to evaluation error
Warning: Cutting back alpha due to evaluation error
Warning: Cutting back alpha due to evaluation error
Warning: Cutting back alpha due to evaluation error
 147  1.4691616e+04 2.97e+04 1.00e+00  -1.7 6.54e+16    -  4.27e-05 6.15e-16f 40
 148  1.4686934e+04 2.97e+04 1.00e+00  -1.7 5.99e+02  -2.8 3.44e-01 7.81e-03h  8
 149  1.4685294e+04 2.99e+04 9.99e-01  -1.7 1.68e+03  -3.3 3.09e-01 9.77e-04h 11
iter    objective    inf_pr   inf_du lg(mu)  ||d||  lg(rg) alpha_du alpha_pr  ls
 150  1.4644064e+04 1.99e+05 1.35e+01  -1.7 6.60e+02  -2.9 3.07e-01 6.25e-02f  5
 151  1.4644069e+04 1.97e+05 1.34e+01  -1.7 2.87e+01  -0.6 2.35e-01 7.81e-03h  8
 152  1.4644081e+04 1.97e+05 1.34e+01  -1.7 4.73e+01  -0.2 9.96e-01 4.88e-04h 12
 153  1.4644090e+04 1.97e+05 1.34e+01  -1.7 3.02e+01   0.2 4.42e-01 9.77e-04h 11
 154  1.4644094e+04 1.97e+05 1.34e+01  -1.7 2.57e+01   0.7 1.00e+00 9.59e-04h 11
 155  1.4644106e+04 1.97e+05 1.34e+01  -1.7 4.33e+01   0.2 9.27e-02 4.88e-04h 12
 156  1.4644114e+04 1.97e+05 1.34e+01  -1.7 2.84e+01   0.6 1.00e+00 9.77e-04h 11
 157  1.4745882e+04 3.66e+66 9.46e+64  -1.7 1.78e+02   0.1 1.87e-02 1.00e+00w  1
Scaling factors are invalid - setting them all to 1.
Scaling factors are invalid - setting them all to 1.
Scaling factors are invalid - setting them all to 1.
Scaling factors are invalid - setting them all to 1.
Scaling factors are invalid - setting them all to 1.
Scaling factors are invalid - setting them all to 1.
 158  1.8021884e+04 3.66e+66 9.46e+64  -1.7 1.11e+66   1.0 8.36e-48 2.72e-46w  1

Number of Iterations....: 158

                                   (scaled)                 (unscaled)
Objective...............:   1.8021884435826836e+04    1.8021884435826836e+04
Dual infeasibility......:   9.4644679229148522e+64    9.4644679229148522e+64
Constraint violation....:   4.0789102926890990e+65    3.6587825325421220e+66
Complementarity.........:   4.2568784047393879e-02    4.2568784047393879e-02
Overall NLP error.......:   4.0789102926890990e+65    3.6587825325421220e+66


Number of objective function evaluations             = 552
Number of objective gradient evaluations             = 146
Number of equality constraint evaluations            = 0
Number of inequality constraint evaluations          = 1138
Number of equality constraint Jacobian evaluations   = 0
Number of inequality constraint Jacobian evaluations = 167
Number of Lagrangian Hessian evaluations             = 158
Total CPU secs in IPOPT (w/o function evaluations)   =      0.077
Total CPU secs in NLP function evaluations           =      0.007

EXIT: Iterates diverging; problem might be unbounded.
Note: The following floating-point exceptions are signalling: IEEE_INVALID_FLAG IEEE_OVERFLOW_FLAG

************************ CUTEst statistics ************************


 Package used            :  IPOPT
 Problem                 :  POLAK6    
 # variables             =               5
 # constraints           =               4
 # objective functions   =        0.6990000E+03
 # objective gradients   =        0.1470000E+03
 # objective Hessians    =        0.1510000E+03
 # Hessian-vector prdct  =        0.0000000E+00
 # constraints functions =        0.1307000E+04
 # constraints gradients =        0.1690000E+03
 # constraints Hessians  =        0.1510000E+03
 Exit code               =               4
 Final f                 =   0.1802188E+05
 Set up time             =            0.00 seconds
 Solve time              =            0.33 seconds


******************************************************************

System Time =       0.0810000002 s.
